Academic license - for non-commercial use only
Gurobi Optimizer version 9.0.3 build v9.0.3rc0 (mac64)
Optimize a model with 31908 rows, 30240 columns and 165570 nonzeros
Model fingerprint: 0x48d20f31
Variable types: 0 continuous, 30240 integer (30240 binary)
Coefficient statistics:
  Matrix range     [1e+00, 1e+00]
  Objective range  [1e+01, 3e+04]
  Bounds range     [1e+00, 1e+00]
  RHS range        [1e+00, 2e+02]
Presolve added 0 rows and 470 columns
Presolve removed 30 rows and 0 columns
Presolve time: 0.40s
Presolved: 31878 rows, 30710 columns, 137010 nonzeros
Variable types: 0 continuous, 30710 integer (30710 binary)
Found heuristic solution: objective 301048.00000

Concurrent LP optimizer: dual simplex and barrier
Showing barrier log only...

Root barrier log...

Ordering time: 0.08s

Barrier statistics:
 Dense cols : 120
 AA' NZ     : 1.090e+05
 Factor NZ  : 2.674e+05 (roughly 30 MBytes of memory)
 Factor Ops : 1.453e+07 (less than 1 second per iteration)
 Threads    : 3

                  Objective                Residual
Iter       Primal          Dual         Primal    Dual     Compl     Time
   0   2.42908953e+07 -2.13506541e+07  1.89e+02 3.09e+01  7.04e+03     1s
   1   4.64730394e+05 -2.65170210e+07  2.05e+00 1.99e+03  3.43e+02     1s
   2   3.34419056e+05 -8.93386474e+06  4.37e-01 6.27e+02  1.06e+02     1s
   3   3.20028355e+05 -7.73510182e+04  2.61e-01 2.37e+01  4.53e+00     1s
   4   3.09460006e+05  1.07044276e+05  1.76e-01 9.01e+00  2.20e+00     1s
   5   3.01090177e+05  1.81557406e+05  1.22e-01 4.21e+00  1.26e+00     1s
   6   2.93511713e+05  2.28582360e+05  8.83e-02 1.66e+00  6.57e-01     1s
   7   2.89810508e+05  2.45794943e+05  7.35e-02 1.02e+00  4.33e-01     1s
   8   2.83259538e+05  2.49987224e+05  5.35e-02 8.83e-01  3.28e-01     1s
   9   2.79887611e+05  2.57170336e+05  4.35e-02 5.00e-01  2.18e-01     1s
  10   2.77359005e+05  2.59358223e+05  3.64e-02 3.30e-01  1.71e-01     1s
  11   2.74088073e+05  2.61451669e+05  2.69e-02 1.60e-01  1.19e-01     1s
  12   2.71375680e+05  2.62390625e+05  1.90e-02 1.17e-01  8.47e-02     1s
  13   2.70013982e+05  2.62971798e+05  1.52e-02 8.26e-02  6.62e-02     1s
  14   2.69066353e+05  2.63448864e+05  1.24e-02 4.60e-02  5.25e-02     1s
  15   2.67308062e+05  2.63673480e+05  7.49e-03 4.01e-02  3.44e-02     1s
  16   2.67117468e+05  2.63935586e+05  6.94e-03 3.48e-02  2.98e-02     1s
  17   2.66419230e+05  2.64034305e+05  5.07e-03 2.95e-02  2.24e-02     1s
  18   2.66156531e+05  2.64103776e+05  4.34e-03 2.56e-02  1.93e-02     1s
  19   2.65889466e+05  2.64149691e+05  3.61e-03 2.29e-02  1.64e-02     1s
  20   2.65687698e+05  2.64272640e+05  3.02e-03 1.69e-02  1.33e-02     1s
  21   2.65507785e+05  2.64308318e+05  2.53e-03 1.48e-02  1.13e-02     1s
  22   2.65332758e+05  2.64343901e+05  2.06e-03 1.31e-02  9.33e-03     1s
  23   2.65250340e+05  2.64369689e+05  1.84e-03 1.19e-02  8.30e-03     1s
  24   2.65140716e+05  2.64388468e+05  1.55e-03 1.06e-02  7.11e-03     1s
  25   2.64935813e+05  2.64490658e+05  9.76e-04 3.19e-03  4.17e-03     1s
  26   2.64805191e+05  2.64550052e+05  6.20e-04 5.04e-04  2.35e-03     1s
  27   2.64715745e+05  2.64556404e+05  3.80e-04 3.89e-04  1.47e-03     1s
  28   2.64590730e+05  2.64568410e+05  5.45e-05 1.02e-04  2.05e-04     1s
  29   2.64570042e+05  2.64569442e+05  1.22e-06 1.25e-06  5.70e-06     1s
  30   2.64569500e+05  2.64569500e+05  1.42e-11 1.79e-09  6.69e-11     1s

Barrier solved model in 30 iterations and 1.39 seconds
Optimal objective 2.64569500e+05


Solved with barrier

Root relaxation: objective 2.645695e+05, 5101 iterations, 0.89 seconds

    Nodes    |    Current Node    |     Objective Bounds      |     Work
 Expl Unexpl |  Obj  Depth IntInf | Incumbent    BestBd   Gap | It/Node Time

     0     0 264569.500    0  913 301048.000 264569.500  12.1%     -    2s
H    0     0                    265882.00000 264569.500  0.49%     -    2s
H    0     0                    264690.00000 264569.500  0.05%     -    2s
     0     0 264666.500    0  582 264690.000 264666.500  0.01%     -    3s

Cutting planes:
  Gomory: 2
  Zero half: 14
  RLT: 1

Explored 1 nodes (5742 simplex iterations) in 3.45 seconds
Thread count was 8 (of 8 available processors)

Solution count 3: 264690 265882 301048 

Optimal solution found (tolerance 1.00e-04)
Best objective 2.646900000000e+05, best bound 2.646670000000e+05, gap 0.0087%

User-callback calls 1080, time in user-callback 0.01 sec
Solution written to /Users/mdeboute/Desktop/Etudes/Master/M2/S9/GOPP/Projet/multi-period-flp/solution/instMulti_I30_J250_T4_0_result.txt
